NAME lp_typeD_914
OBJSENSE MAX
ROWS
 N  OBJ
 L  c0      
 L  c1      
 L  c2      
 G  c3      
 G  c4      
 G  c5      
 L  c_key_upper
 G  c_key_lower
 G  _chain_constr_1
 G  _chain_constr_2
 G  _chain_constr_3
 G  _chain_constr_4
 G  _chain_constr_5
 G  _chain_cycle
COLUMNS
    x0        OBJ       9.4392652979383340e-01
    x0        c0        1.1523027841262310e+00
    x0        c1        1.2922917547665933e+00
    x0        c2        1.1563691458679188e+00
    x0        c3        1.0270524807871046e+00
    x0        c4        9.6552932353286991e-01
    x0        c5        9.9552300259175719e-01
    x0        c_key_upper  1.6977952821905398e+00
    x0        c_key_lower  1.6977952821905398e+00
    x1        OBJ       1.0808669961998283e+00
    x1        c0        1.9293753945169279e+00
    x1        c1        1.1781753637849293e+00
    x1        c2        6.5343580005963720e-01
    x1        c3        9.9119667170961590e-01
    x1        c4        1.9467434936111361e+00
    x1        c5        1.5365451492425568e+00
    x1        c_key_upper  1.0811749261335073e+00
    x1        c_key_lower  1.0811749261335073e+00
    x2        OBJ       5.4709777865722409e-01
    x2        c0        1.3076964812298626e+00
    x2        c1        1.5665039021284743e+00
    x2        c2        1.9894066721433195e+00
    x2        c3        1.5606604642158324e+00
    x2        c4        1.9742840185100707e+00
    x2        c5        1.8424861277091757e+00
    x2        c_key_upper  1.1356170450315015e+00
    x2        c_key_lower  1.1356170450315015e+00
    x3        OBJ       1.25022395212764
    x3        c0        1.6028550618544015e+00
    x3        c1        9.1985512824185367e-01
    x3        c2        1.5091448509844660e+00
    x3        c3        1.7082001213733695e+00
    x3        c4        6.0881166679576881e-01
    x3        c5        1.3807692121187687e+00
    x3        c_key_upper  1.9278593376435205e+00
    x3        c_key_lower  1.9278593376435205e+00
    x4        OBJ       8.5272049424340413e-01
    x4        c0        1.2254543745450117e+00
    x4        c1        6.2609428701154357e-01
    x4        c2        7.9317137578889474e-01
    x4        c3        7.2223835258277491e-01
    x4        c4        1.3290053581396251e+00
    x4        c5        1.8894912499468783e+00
    x4        c_key_upper  1.5178084295034213e+00
    x4        c_key_lower  1.5178084295034213e+00
    x5        OBJ       1.3235005718999897e+00
    x5        c0        8.5425552482011569e-01
    x5        c1        9.9100610437578773e-01
    x5        c2        9.3184139119436638e-01
    x5        c3        8.1427207077974451e-01
    x5        c4        1.4759559125638995e+00
    x5        c5        1.7123128340686544e+00
    x5        c_key_upper  1.2767626324002781e+00
    x5        c_key_lower  1.2767626324002781e+00
    x6        OBJ       7.2047198602490570e-01
    x6        c0        8.2287183118252449e-01
    x6        c1        6.2585275959805187e-01
    x6        c2        5.6940999997636166e-01
    x6        c3        8.6772930603069365e-01
    x6        c4        1.4255682818416071e+00
    x6        c5        9.9546115215269326e-01
    x6        c_key_upper  1.29235356961108
    x6        c_key_lower  1.29235356961108
    _chain_var_0  _chain_constr_1  -1
    _chain_var_0  _chain_cycle  1
    _chain_var_1  _chain_constr_1  1
    _chain_var_1  _chain_constr_2  -1
    _chain_var_2  _chain_constr_2  1
    _chain_var_2  _chain_constr_3  -1
    _chain_var_3  _chain_constr_3  1
    _chain_var_3  _chain_constr_4  -1
    _chain_var_4  _chain_constr_4  1
    _chain_var_4  _chain_constr_5  -1
    _chain_var_5  _chain_constr_5  1
    _chain_var_5  _chain_cycle  -1
RHS
    RHS1      c0        4.8248012584944959e+01
    RHS1      c1        35.9302347152291
    RHS1      c2        3.5983586696564160e+01
    RHS1      c3        9.4051996882768361e+00
    RHS1      c4        1.6630839107238771e+01
    RHS1      c5        1.7662419383044561e+01
    RHS1      c_key_upper  4.9646856112569246e+01
    RHS1      c_key_lower  2.4823428056284623e+01
    RHS1      _chain_constr_1  10
    RHS1      _chain_constr_2  10
    RHS1      _chain_constr_3  10
    RHS1      _chain_constr_4  10
    RHS1      _chain_constr_5  10
    RHS1      _chain_cycle  10
BOUNDS
 UP BND1      x0        10
 UP BND1      x1        10
 UP BND1      x2        10
 UP BND1      x3        10
 UP BND1      x4        10
 UP BND1      x5        10
 UP BND1      x6        10
 UP BND1      _chain_var_0  100
 UP BND1      _chain_var_1  100
 UP BND1      _chain_var_2  100
 UP BND1      _chain_var_3  100
 UP BND1      _chain_var_4  100
 UP BND1      _chain_var_5  100
ENDATA
